c Generated map
c Size: 10 * 10, weights in range: 1 to 10, walls: True, with ratio 0.1
c dim 4 of 6
c
p sp 100 145
c graph contains 100 nodes and 145 arcs
c
a 1 11 1
a 11 1 1
a 1 2 7
a 2 1 7
a 2 12 8
a 12 2 8
a 4 14 8
a 14 4 8
a 6 16 2
a 16 6 2
a 6 7 7
a 7 6 7
a 7 17 4
a 17 7 4
a 7 8 4
a 8 7 4
a 8 18 6
a 18 8 6
a 8 9 1
a 9 8 1
a 9 19 10
a 19 9 10
a 9 10 3
a 10 9 3
a 10 20 8
a 20 10 8
a 11 21 2
a 21 11 2
a 11 12 8
a 12 11 8
a 12 22 1
a 22 12 1
a 12 13 4
a 13 12 4
a 13 23 3
a 23 13 3
a 13 14 4
a 14 13 4
a 14 24 7
a 24 14 7
a 14 15 5
a 15 14 5
a 15 25 6
a 25 15 6
a 15 16 5
a 16 15 5
a 16 26 5
a 26 16 5
a 16 17 9
a 17 16 9
a 17 27 3
a 27 17 3
a 17 18 4
a 18 17 4
a 18 19 5
a 19 18 5
a 19 29 8
a 29 19 8
a 19 20 1
a 20 19 1
a 20 30 3
a 30 20 3
a 21 31 4
a 31 21 4
a 21 22 3
a 22 21 3
a 22 32 3
a 32 22 3
a 22 23 3
a 23 22 3
a 23 33 6
a 33 23 6
a 23 24 3
a 24 23 3
a 24 34 4
a 34 24 4
a 24 25 10
a 25 24 10
a 25 35 8
a 35 25 8
a 25 26 10
a 26 25 10
a 26 36 9
a 36 26 9
a 26 27 9
a 27 26 9
a 27 37 1
a 37 27 1
a 29 39 10
a 39 29 10
a 29 30 6
a 30 29 6
a 30 40 1
a 40 30 1
a 31 41 10
a 41 31 10
a 31 32 7
a 32 31 7
a 32 42 8
a 42 32 8
a 32 33 3
a 33 32 3
a 33 43 8
a 43 33 8
a 33 34 10
a 34 33 10
a 34 44 10
a 44 34 10
a 34 35 9
a 35 34 9
a 35 45 6
a 45 35 6
a 35 36 4
a 36 35 4
a 36 46 3
a 46 36 3
a 36 37 6
a 37 36 6
a 37 38 2
a 38 37 2
a 38 48 3
a 48 38 3
a 38 39 1
a 39 38 1
a 39 49 10
a 49 39 10
a 39 40 7
a 40 39 7
a 40 50 10
a 50 40 10
a 41 51 8
a 51 41 8
a 41 42 4
a 42 41 4
a 42 52 9
a 52 42 9
a 42 43 8
a 43 42 8
a 43 53 7
a 53 43 7
a 43 44 5
a 44 43 5
a 44 54 3
a 54 44 3
a 44 45 3
a 45 44 3
a 45 55 3
a 55 45 3
a 45 46 5
a 46 45 5
a 48 58 3
a 58 48 3
a 48 49 4
a 49 48 4
a 49 59 10
a 59 49 10
a 49 50 2
a 50 49 2
a 50 60 8
a 60 50 8
a 51 61 3
a 61 51 3
a 51 52 4
a 52 51 4
a 52 62 3
a 62 52 3
a 52 53 10
a 53 52 10
a 53 63 5
a 63 53 5
a 53 54 1
a 54 53 1
a 54 64 4
a 64 54 4
a 54 55 1
a 55 54 1
a 55 65 7
a 65 55 7
a 57 58 5
a 58 57 5
a 58 68 2
a 68 58 2
a 58 59 9
a 59 58 9
a 59 69 6
a 69 59 6
a 59 60 6
a 60 59 6
a 60 70 3
a 70 60 3
a 61 71 2
a 71 61 2
a 61 62 7
a 62 61 7
a 62 72 7
a 72 62 7
a 62 63 10
a 63 62 10
a 63 73 9
a 73 63 9
a 63 64 1
a 64 63 1
a 64 74 2
a 74 64 2
a 64 65 9
a 65 64 9
a 65 75 5
a 75 65 5
a 65 66 1
a 66 65 1
a 66 76 7
a 76 66 7
a 68 78 6
a 78 68 6
a 68 69 1
a 69 68 1
a 69 79 8
a 79 69 8
a 69 70 10
a 70 69 10
a 70 80 5
a 80 70 5
a 71 72 8
a 72 71 8
a 72 82 10
a 82 72 10
a 72 73 5
a 73 72 5
a 73 83 5
a 83 73 5
a 73 74 1
a 74 73 1
a 74 75 5
a 75 74 5
a 75 85 3
a 85 75 3
a 75 76 4
a 76 75 4
a 76 86 1
a 86 76 1
a 76 77 3
a 77 76 3
a 77 87 10
a 87 77 10
a 77 78 6
a 78 77 6
a 78 88 8
a 88 78 8
a 78 79 6
a 79 78 6
a 79 80 8
a 80 79 8
a 80 90 4
a 90 80 4
a 82 92 3
a 92 82 3
a 82 83 9
a 83 82 9
a 83 93 7
a 93 83 7
a 85 95 3
a 95 85 3
a 85 86 3
a 86 85 3
a 86 96 5
a 96 86 5
a 86 87 7
a 87 86 7
a 87 97 6
a 97 87 6
a 87 88 7
a 88 87 7
a 88 98 6
a 98 88 6
a 90 100 3
a 100 90 3
a 91 92 5
a 92 91 5
a 92 93 8
a 93 92 8
a 95 96 1
a 96 95 1
a 96 97 6
a 97 96 6
a 97 98 5
a 98 97 5
a 98 99 9
a 99 98 9
a 99 100 7
a 100 99 7
